============================[ Problem Statistics ]=============================|                                                                             ||  Number of variables:          4242                                         ||  Number of clauses:            9938                                         ||  Parse time:                   0.34 s                                       ||                                                                             |============================[ Search Statistics ]==============================| Conflicts |          ORIGINAL         |          LEARNT          | Progress ||           |    Vars  Clauses Literals |    Limit  Clauses Lit/Cl |          |===============================================================================|       100 |    1591     6143   520914 |     2252      100     53 | 62.501 % |===============================================================================restarts              : 2conflicts             : 193            (372 /sec)decisions             : 363            (0.00 % random) (699 /sec)propagations          : 10050          (19364 /sec)conflict literals     : 13469          (95.18 % deleted)CPU time              : 0.519 sSATISFIABLE